# Solution for model r5_t27_m6_4
# Finished Task: 25 / 27
# Makespan: 549.0, Total Distance: 1064.0, Total Time: 0.2997
# R O S F
0 0 8 0.0 0.0
1 1 15 0.0 0.0
2 2 14 0.0 0.0
3 3 29 0.0 0.0
4 4 24 0.0 0.0
5 0 -1 509.0 529.0
6 2 19 351.0 374.0
7 2 23 185.0 214.0
8 0 10 34.0 66.0
9 1 17 411.0 432.0
10 0 11 330.0 365.0
11 0 5 393.0 419.0
12 4 20 385.0 417.0
13 4 12 253.0 285.0
14 2 7 88.0 122.0
15 1 31 313.0 349.0
16 4 13 166.0 204.0
17 1 18 478.0 500.0
18 1 -1 521.0 542.0
19 2 22 421.0 443.0
20 4 -1 521.0 549.0
21 3 30 315.0 340.0
22 2 -1 519.0 544.0
23 2 6 306.0 338.0
24 4 16 93.0 125.0
25 3 -1 423.0 457.0
26 -1 -1 -1.0 -1.0
27 -1 -1 -1.0 -1.0
28 3 21 291.0 315.0
29 3 28 203.0 223.0
30 3 25 385.0 414.0
31 1 9 381.0 401.0
